30
0 1 0.61 0.16
0 2 0.76 0.27
0 3 0.81 0.23
0 4 0.59 0.32
0 5 0.77 0.33
0 6 0.56 0.26
0 7 0.62 0.29
0 8 0.68 0.15
0 9 0.4 0.32
0 10 0.52 0.24
0 11 0.75 0.24
0 12 0.42 0.23
0 13 0.66 0.03
0 14 0.74 0.12
0 15 0.84 0.06
0 16 0.74 0.22
0 17 0.59 0.27
0 18 0.28 0.18
0 19 0.48 0.09
0 20 0.52 0.21
0 21 0.81 0.24
0 22 0.72 0.34
0 23 0.64 0.24
0 24 0.58 0.19
0 25 0.82 0.28
0 26 0.74 0.21
0 27 0.5 0.21
0 28 0.59 0.22
0 29 0.8 0.23
1 2 0.54 0.29
1 3 0.66 0.31
1 4 0.65 0.2
1 5 0.64 0.36
1 6 0.56 0.3
1 7 0.24 0.23
1 8 0.48 0.25
1 9 0.51 0.35
1 10 0.39 0.24
1 11 0.66 0.21
1 12 0.78 0.26
1 13 0.68 0.13
1 14 0.42 0.22
1 15 0.54 0.22
1 16 0.59 0.33
1 17 0.53 0.22
1 18 0.48 0.26
1 19 0.58 0.17
1 20 0.55 0.21
1 21 0.33 0.29
1 22 0.6 0.31
1 23 0.64 0.26
1 24 0.52 0.18
1 25 0.22 0.19
1 26 0.47 0.29
1 27 0.4 0.18
1 28 0.55 0.06
1 29 0.61 0.31
2 3 0.48 0.26
2 4 0.64 0.26
2 5 0.59 0.27
2 6 0.34 0.2
2 7 0.64 0.27
2 8 0.85 0.19
2 9 0.54 0.32
2 10 0.58 0.21
2 11 0.82 0.18
2 12 0.68 0.09
2 13 0.72 0.24
2 14 0.36 0.15
2 15 0.56 0.31
2 16 0.64 0.22
2 17 0.41 0.1
2 18 0.48 0.09
2 19 0.59 0.3
2 20 0.62 0.14
2 21 0.5 0.26
2 22 0.64 0.28
2 23 0.14 0.03
2 24 0.62 0.33
2 25 0.32 0.16
2 26 0.36 0.18
2 27 0.56 0.16
2 28 0.35 0.26
2 29 0.6 0.25
3 4 0.68 0.33
3 5 0.46 0.17
3 6 0.42 0.1
3 7 0.74 0.38
3 8 0.44 0.16
3 9 0.54 0.29
3 10 0.8 0.32
3 11 0.61 0.3
3 12 0.55 0.26
3 13 0.53 0.26
3 14 0.52 0.29
3 15 0.72 0.28
3 16 0.44 0.19
3 17 0.44 0.2
3 18 0.67 0.27
3 19 0.33 0.14
3 20 0.64 0.22
3 21 0.8 0.22
3 22 0.56 0.37
3 23 0.62 0.27
3 24 0.59 0.2
3 25 0.8 0.21
3 26 0.72 0.15
3 27 0.56 0.26
3 28 0.57 0.33
3 29 0.66 0.26
4 5 0.56 0.33
4 6 0.3 0.26
4 7 0.41 0.36
4 8 0.66 0.22
4 9 0.52 0.32
4 10 0.82 0.23
4 11 0.58 0.26
4 12 0.36 0.21
4 13 0.72 0.33
4 14 0.58 0.27
4 15 0.6 0.34
4 16 0.47 0.23
4 17 0.38 0.24
4 18 0.75 0.21
4 19 0.64 0.23
4 20 0.77 0.16
4 21 0.55 0.34
4 22 0.66 0.32
4 23 0.53 0.23
4 24 0.32 0.28
4 25 0.6 0.36
4 26 0.75 0.27
4 27 0.48 0.18
4 28 0.55 0.26
4 29 0.27 0.15
5 6 0.52 0.07
5 7 0.62 0.38
5 8 0.64 0.27
5 9 0.47 0.4
5 10 0.7 0.27
5 11 0.46 0.24
5 12 0.62 0.23
5 13 0.6 0.3
5 14 0.42 0.34
5 15 0.64 0.37
5 16 0.72 0.31
5 17 0.18 0.17
5 18 0.74 0.28
5 19 0.56 0.31
5 20 0.54 0.23
5 21 0.34 0.19
5 22 0.64 0.34
5 23 0.55 0.24
5 24 0.67 0.35
5 25 0.61 0.18
5 26 0.69 0.27
5 27 0.6 0.23
5 28 0.46 0.3
5 29 0.62 0.39
6 7 0.32 0.31
6 8 0.54 0.2
6 9 0.55 0.33
6 10 0.64 0.23
6 11 0.56 0.2
6 12 0.66 0.23
6 13 0.42 0.23
6 14 0.68 0.27
6 15 0.52 0.3
6 16 0.49 0.24
6 17 0.46 0.1
6 18 0.63 0.23
6 19 0.62 0.24
6 20 0.78 0.26
6 21 0.62 0.12
6 22 0.6 0.27
6 23 0.48 0.17
6 24 0.35 0.28
6 25 0.4 0.11
6 26 0.68 0.2
6 27 0.22 0.16
6 28 0.69 0.26
6 29 0.57 0.35
7 8 0.72 0.28
7 9 0.5 0.3
7 10 0.63 0.27
7 11 0.66 0.24
7 12 0.74 0.18
7 13 0.54 0.26
7 14 0.65 0.35
7 15 0.3 0.26
7 16 0.36 0.31
7 17 0.52 0.31
7 18 0.62 0.3
7 19 0.45 0.24
7 20 0.62 0.34
7 21 0.44 0.32
7 22 0.54 0.14
7 23 0.78 0.24
7 24 0.55 0.28
7 25 0.46 0.22
7 26 0.36 0.3
7 27 0.5 0.31
7 28 0.79 0.29
7 29 0.68 0.34
8 9 0.58 0.38
8 10 0.68 0.16
8 11 0.72 0.19
8 12 0.3 0.1
8 13 0.35 0.12
8 14 0.49 0.17
8 15 0.52 0.12
8 16 0.62 0.28
8 17 0.46 0.22
8 18 0.58 0.11
8 19 0.35 0.24
8 20 0.52 0.06
8 21 0.56 0.27
8 22 0.72 0.29
8 23 0.71 0.16
8 24 0.65 0.26
8 25 0.7 0.29
8 26 0.61 0.29
8 27 0.76 0.28
8 28 0.68 0.3
8 29 0.7 0.26
9 10 0.7 0.29
9 11 0.74 0.26
9 12 0.6 0.33
9 13 0.57 0.35
9 14 0.56 0.3
9 15 0.5 0.26
9 16 0.72 0.1
9 17 0.59 0.23
9 18 0.51 0.32
9 19 0.44 0.26
9 20 0.67 0.34
9 21 0.8 0.22
9 22 0.48 0.16
9 23 0.68 0.3
9 24 0.2 0.18
9 25 0.73 0.26
9 26 0.82 0.14
9 27 0.54 0.17
9 28 0.68 0.31
9 29 0.72 0.27
10 11 0.48 0.03
10 12 0.6 0.26
10 13 0.64 0.24
10 14 0.54 0.15
10 15 0.4 0.28
10 16 0.46 0.23
10 17 0.62 0.21
10 18 0.4 0.15
10 19 0.64 0.23
10 20 0.16 0.1
10 21 0.6 0.11
10 22 0.52 0.13
10 23 0.44 0.21
10 24 0.5 0.3
10 25 0.5 0.13
10 26 0.62 0.19
10 27 0.79 0.15
10 28 0.49 0.27
10 29 0.6 0.3
11 12 0.66 0.27
11 13 0.46 0.21
11 14 0.56 0.12
11 15 0.67 0.26
11 16 0.74 0.2
11 17 0.62 0.18
11 18 0.47 0.18
11 19 0.66 0.2
11 20 0.46 0.13
11 21 0.63 0.08
11 22 0.26 0.1
11 23 0.69 0.21
11 24 0.82 0.28
11 25 0.64 0.1
11 26 0.46 0.16
11 27 0.34 0.12
11 28 0.62 0.24
11 29 0.81 0.27
12 13 0.58 0.22
12 14 0.7 0.18
12 15 0.68 0.22
12 16 0.66 0.23
12 17 0.74 0.13
12 18 0.42 0.12
12 19 0.65 0.3
12 20 0.6 0.16
12 21 0.86 0.27
12 22 0.79 0.32
12 23 0.68 0.06
12 24 0.68 0.33
12 25 0.6 0.25
12 26 0.68 0.19
12 27 0.5 0.19
12 28 0.69 0.2
12 29 0.63 0.16
13 14 0.74 0.09
13 15 0.24 0.09
13 16 0.56 0.25
13 17 0.42 0.24
13 18 0.54 0.15
13 19 0.2 0.12
13 20 0.56 0.18
13 21 0.54 0.27
13 22 0.56 0.31
13 23 0.78 0.21
13 24 0.7 0.22
13 25 0.46 0.25
13 26 0.53 0.24
13 27 0.64 0.18
13 28 0.7 0.19
13 29 0.5 0.26
14 15 0.64 0.18
14 16 0.68 0.28
14 17 0.51 0.19
14 18 0.62 0.06
14 19 0.7 0.16
14 20 0.38 0.11
14 21 0.75 0.2
14 22 0.44 0.22
14 23 0.22 0.12
14 24 0.52 0.26
14 25 0.28 0.16
14 26 0.71 0.28
14 27 0.82 0.24
14 28 0.55 0.28
14 29 0.68 0.3
15 16 0.38 0.16
15 17 0.6 0.3
15 18 0.56 0.23
15 19 0.44 0.15
15 20 0.32 0.18
15 21 0.3 0.18
15 22 0.54 0.36
15 23 0.7 0.28
15 24 0.7 0.25
15 25 0.56 0.22
15 26 0.64 0.2
15 27 0.74 0.27
15 28 0.55 0.28
15 29 0.58 0.29
16 17 0.7 0.14
16 18 0.46 0.22
16 19 0.76 0.16
16 20 0.3 0.24
16 21 0.66 0.12
16 22 0.78 0.26
16 23 0.78 0.21
16 24 0.52 0.26
16 25 0.66 0.22
16 26 0.28 0.04
16 27 0.64 0.2
16 28 0.7 0.3
16 29 0.43 0.17
17 18 0.67 0.13
17 19 0.62 0.2
17 20 0.51 0.18
17 21 0.38 0.19
17 22 0.46 0.26
17 23 0.37 0.07
17 24 0.56 0.29
17 25 0.73 0.21
17 26 0.76 0.18
17 27 0.42 0.06
17 28 0.28 0.16
17 29 0.65 0.29
18 19 0.34 0.22
18 20 0.24 0.05
18 21 0.66 0.23
18 22 0.64 0.28
18 23 0.62 0.06
18 24 0.43 0.25
18 25 0.7 0.22
18 26 0.68 0.26
18 27 0.66 0.19
18 28 0.43 0.27
18 29 0.52 0.28
19 20 0.48 0.27
19 21 0.6 0.2
19 22 0.76 0.3
19 23 0.63 0.27
19 24 0.5 0.1
19 25 0.5 0.3
19 26 0.72 0.12
19 27 0.51 0.26
19 28 0.77 0.23
19 29 0.7 0.14
20 21 0.62 0.21
20 22 0.52 0.23
20 23 0.6 0.11
20 24 0.66 0.2
20 25 0.62 0.23
20 26 0.58 0.28
20 27 0.66 0.24
20 28 0.65 0.27
20 29 0.73 0.31
21 22 0.78 0.18
21 23 0.62 0.26
21 24 0.8 0.3
21 25 0.55 0.18
21 26 0.38 0.08
21 27 0.58 0.2
21 28 0.58 0.24
21 29 0.28 0.23
22 23 0.5 0.31
22 24 0.64 0.34
22 25 0.38 0.16
22 26 0.72 0.26
22 27 0.38 0.2
22 28 0.74 0.34
22 29 0.55 0.37
23 24 0.48 0.3
23 25 0.46 0.19
23 26 0.5 0.21
23 27 0.68 0.13
23 28 0.46 0.23
23 29 0.56 0.22
24 25 0.74 0.37
24 26 0.71 0.22
24 27 0.48 0.35
24 28 0.66 0.13
24 29 0.52 0.24
25 26 0.68 0.18
25 27 0.62 0.22
25 28 0.64 0.25
25 29 0.6 0.37
26 27 0.62 0.24
26 28 0.54 0.28
26 29 0.52 0.21
27 28 0.7 0.22
27 29 0.56 0.33
28 29 0.82 0.36
